c Sudoku solution
p cnf 729 0
126 0
154 0
197 0
211 0
233 0
272 0
358 0
442 0
475 0
524 0
541 0
688 0
753 0
784 0
294 0
178 0
228 0
674 0
464 0
568 0
812 0
952 0
792 0
851 0
582 0
846 0
944 0
748 0
834 0
898 0
314 0
915 0
938 0
765 0
885 0
119 0
418 0
395 0
135 0
162 0
361 0
181 0
143 0
625 0
632 0
555 0
691 0
322 0
337 0
349 0
289 0
663 0
513 0
577 0
245 0
647 0
427 0
431 0
616 0
539 0
596 0
456 0
659 0
717 0
736 0
257 0
266 0
867 0
969 0
987 0
386 0
373 0
879 0
771 0
729 0
921 0
823 0
976 0
993 0
483 0
499 0
